Route #1: 60 16 8 46 47 63 2 58 31 59 37 23
Route #2: 32 24 61 13 52 56 41 10
Route #3: 18 22 12 28 43 38
Route #4: 30 14 27 1 17 57 11
Route #5: 33 45 29 25 6
Route #6: 35 26 21 7 44 39 36 40 50 49 55
Route #7: 62 3 53 15
Route #8: 19 51 20 48
Route #9: 42 34 4 5 54 9
Cost 1414
Time 0.167673
